data;

# Mochila: indice, peso (j,w)
set Moch :=
1 100
2 150
3 200;

# Items: indice, valor, peso (i,v,p)
set Item :=
1 100 8
2 220 24
3 90 13
4 400 80
5 300 70
6 400 80
7 205 45
8 120 15
9 160 28
10 580 90
11 400 130
12 140 32
13 100 20
14 1300 120
15 650 40;
end;